87 15 85 45 44 78 32 39 65 91 93 84 96 99 88 92 82 75 68 97 66 89 95 81 94 79 76 64 30 22 23 63 90 74 83 98 67 77 70 86 80 69 73 62 57 60 71 59 33 61 72 58 26 56 55 53 49 50 52 42 4 11 36 40 54 51 41 47 28 38 35 27 29 24 25 14 7 0 19 21 48 46 20 17 1 43 34 18 9 6 12 2 3 10 37 13 5 31 8 16 

